presolving:
   (0.0s) running MILP presolver
   (0.1s) MILP presolver found nothing
(round 1, exhaustive) 0 del vars, 0 del conss, 0 add conss, 0 chg bounds, 0 chg sides, 0 chg coeffs, 277 upgd conss, 0 impls, 213 clqs
   (0.2s) probing: 51/13696 (0.4%) - 0 fixings, 0 aggregations, 0 implications, 0 bound changes
   (0.2s) probing aborted: 50/50 successive totally useless probings
   (0.3s) symmetry computation started: requiring (bin +, int -, cont +), (fixed: bin -, int +, cont -)
   (0.3s) no symmetry present
presolving (2 rounds: 2 fast, 2 medium, 2 exhaustive):
 0 deleted vars, 0 deleted constraints, 0 added constraints, 0 tightened bounds, 0 added holes, 0 changed sides, 0 changed coefficients
 0 implications, 13845 cliques
presolved problem has 13696 variables (13696 bin, 0 int, 0 impl, 0 cont) and 277 constraints
     64 constraints of type <knapsack>
    213 constraints of type <setppc>
transformed objective value is always integral (scale: 1)
Presolving Time: 0.25

 time | node  | left  |LP iter|LP it/n|mem/heur|mdpt |vars |cons |rows |cuts |sepa|confs|strbr|  dualbound   | primalbound  |  gap   | compl. 
p 0.4s|     1 |     0 |     0 |     - |  clique|   0 |  13k| 277 | 277 |   0 |  0 |   0 |   0 | 0.000000e+00 | 7.324000e+03 |    Inf | unknown
  0.9s|     1 |     0 |  1038 |     - |   145M |   0 |  13k| 409 | 277 |   0 |  0 | 133 |   0 | 3.332846e+03 | 7.324000e+03 | 119.75%| unknown
r 0.9s|     1 |     0 |  1038 |     - |shifting|   0 |  13k| 409 | 277 |   0 |  0 | 133 |   0 | 3.332846e+03 | 4.682000e+03 |  40.48%| unknown
  1.1s|     1 |     0 |  1254 |     - |   149M |   0 |  13k| 409 | 308 |  31 |  1 | 133 |   0 | 3.366054e+03 | 4.682000e+03 |  39.09%| unknown
r 1.1s|     1 |     0 |  1254 |     - |shifting|   0 |  13k| 409 | 308 |  31 |  1 | 133 |   0 | 3.366054e+03 | 4.578000e+03 |  36.00%| unknown
  1.2s|     1 |     0 |  1396 |     - |   152M |   0 |  13k| 409 | 339 |  62 |  2 | 133 |   0 | 3.382029e+03 | 4.578000e+03 |  35.36%| unknown
r 1.3s|     1 |     0 |  1396 |     - |shifting|   0 |  13k| 409 | 339 |  62 |  2 | 133 |   0 | 3.382029e+03 | 4.493000e+03 |  32.85%| unknown
  1.4s|     1 |     0 |  1551 |     - |   156M |   0 |  13k| 409 | 369 |  92 |  3 | 133 |   0 | 3.389307e+03 | 4.493000e+03 |  32.56%| unknown
r 1.4s|     1 |     0 |  1551 |     - |shifting|   0 |  13k| 409 | 369 |  92 |  3 | 133 |   0 | 3.389307e+03 | 4.477000e+03 |  32.09%| unknown
  1.5s|     1 |     0 |  1809 |     - |   157M |   0 |  13k| 409 | 395 | 118 |  4 | 133 |   0 | 3.394670e+03 | 4.477000e+03 |  31.88%| unknown
r 1.6s|     1 |     0 |  1809 |     - |shifting|   0 |  13k| 409 | 395 | 118 |  4 | 133 |   0 | 3.394670e+03 | 4.382000e+03 |  29.08%| unknown
  1.7s|     1 |     0 |  2068 |     - |   158M |   0 |  13k| 409 | 422 | 145 |  5 | 133 |   0 | 3.399431e+03 | 4.382000e+03 |  28.90%| unknown
r 1.7s|     1 |     0 |  2068 |     - |shifting|   0 |  13k| 409 | 422 | 145 |  5 | 133 |   0 | 3.399431e+03 | 4.123000e+03 |  21.29%| unknown
i 1.7s|     1 |     0 |  2068 |     - |  oneopt|   0 |  13k| 409 | 422 | 145 |  5 | 133 |   0 | 3.399431e+03 | 4.054000e+03 |  19.26%| unknown
  1.9s|     1 |     0 |  2267 |     - |   159M |   0 |  13k| 409 | 446 | 169 |  6 | 133 |   0 | 3.401913e+03 | 4.054000e+03 |  19.17%| unknown
 time | node  | left  |LP iter|LP it/n|mem/heur|mdpt |vars |cons |rows |cuts |sepa|confs|strbr|  dualbound   | primalbound  |  gap   | compl. 
  2.0s|     1 |     0 |  2451 |     - |   161M |   0 |  13k| 409 | 466 | 189 |  7 | 133 |   0 | 3.403671e+03 | 4.054000e+03 |  19.11%| unknown
  2.2s|     1 |     0 |  2548 |     - |   161M |   0 |  13k| 409 | 485 | 208 |  8 | 133 |   0 | 3.404132e+03 | 4.054000e+03 |  19.09%| unknown
  2.3s|     1 |     0 |  2712 |     - |   163M |   0 |  13k| 409 | 507 | 230 |  9 | 133 |   0 | 3.405746e+03 | 4.054000e+03 |  19.03%| unknown
  2.5s|     1 |     0 |  2931 |     - |   164M |   0 |  13k| 409 | 530 | 253 | 10 | 133 |   0 | 3.406862e+03 | 4.054000e+03 |  19.00%| unknown
  2.7s|     1 |     0 |  3192 |     - |   164M |   0 |  13k| 409 | 549 | 272 | 11 | 133 |   0 | 3.407535e+03 | 4.054000e+03 |  18.97%| unknown
  2.9s|     1 |     0 |  3379 |     - |   164M |   0 |  13k| 409 | 566 | 289 | 12 | 133 |   0 | 3.408362e+03 | 4.054000e+03 |  18.94%| unknown
  3.0s|     1 |     0 |  3514 |     - |   165M |   0 |  13k| 409 | 582 | 305 | 13 | 133 |   0 | 3.408968e+03 | 4.054000e+03 |  18.92%| unknown
  3.2s|     1 |     0 |  3593 |     - |   165M |   0 |  13k| 409 | 600 | 323 | 14 | 133 |   0 | 3.409337e+03 | 4.054000e+03 |  18.91%| unknown
  3.3s|     1 |     0 |  3704 |     - |   165M |   0 |  13k| 409 | 611 | 334 | 15 | 133 |   0 | 3.409630e+03 | 4.054000e+03 |  18.90%| unknown
  3.5s|     1 |     0 |  3894 |     - |   165M |   0 |  13k| 409 | 626 | 349 | 16 | 133 |   0 | 3.410229e+03 | 4.054000e+03 |  18.88%| unknown
  3.6s|     1 |     0 |  3996 |     - |   165M |   0 |  13k| 409 | 638 | 361 | 17 | 133 |   0 | 3.410577e+03 | 4.054000e+03 |  18.87%| unknown
  3.8s|     1 |     0 |  4228 |     - |   165M |   0 |  13k| 409 | 648 | 371 | 18 | 133 |   0 | 3.411431e+03 | 4.054000e+03 |  18.84%| unknown
  3.9s|     1 |     0 |  4404 |     - |   166M |   0 |  13k| 409 | 661 | 384 | 19 | 133 |   0 | 3.411843e+03 | 4.054000e+03 |  18.82%| unknown
  4.0s|     1 |     0 |  4456 |     - |   166M |   0 |  13k| 409 | 669 | 392 | 20 | 133 |   0 | 3.411931e+03 | 4.054000e+03 |  18.82%| unknown
  4.2s|     1 |     0 |  4747 |     - |   166M |   0 |  13k| 409 | 681 | 408 | 21 | 133 |   0 | 3.412673e+03 | 4.054000e+03 |  18.79%| unknown
 time | node  | left  |LP iter|LP it/n|mem/heur|mdpt |vars |cons |rows |cuts |sepa|confs|strbr|  dualbound   | primalbound  |  gap   | compl. 
  4.4s|     1 |     0 |  4887 |     - |   166M |   0 |  13k| 409 | 694 | 421 | 22 | 133 |   0 | 3.413104e+03 | 4.054000e+03 |  18.78%| unknown
  4.5s|     1 |     0 |  5040 |     - |   166M |   0 |  13k| 409 | 700 | 427 | 23 | 133 |   0 | 3.413293e+03 | 4.054000e+03 |  18.77%| unknown
  4.6s|     1 |     0 |  5106 |     - |   166M |   0 |  13k| 409 | 709 | 436 | 24 | 133 |   0 | 3.413370e+03 | 4.054000e+03 |  18.77%| unknown
  4.7s|     1 |     0 |  5174 |     - |   166M |   0 |  13k| 409 | 714 | 441 | 25 | 133 |   0 | 3.413515e+03 | 4.054000e+03 |  18.76%| unknown
  4.9s|     1 |     0 |  5390 |     - |   166M |   0 |  13k| 409 | 727 | 454 | 26 | 133 |   0 | 3.414124e+03 | 4.054000e+03 |  18.74%| unknown
  5.1s|     1 |     0 |  5497 |     - |   166M |   0 |  13k| 409 | 730 | 466 | 27 | 133 |   0 | 3.414307e+03 | 4.054000e+03 |  18.74%| unknown
  5.2s|     1 |     0 |  5567 |     - |   166M |   0 |  13k| 409 | 742 | 478 | 28 | 133 |   0 | 3.414443e+03 | 4.054000e+03 |  18.73%| unknown
  5.3s|     1 |     0 |  5629 |     - |   166M |   0 |  13k| 408 | 751 | 487 | 29 | 133 |   0 | 3.414506e+03 | 4.054000e+03 |  18.73%| unknown
  5.4s|     1 |     0 |  5645 |     - |   166M |   0 |  13k| 408 | 753 | 489 | 30 | 133 |   0 | 3.414514e+03 | 4.054000e+03 |  18.73%| unknown
  5.5s|     1 |     0 |  5774 |     - |   166M |   0 |  13k| 408 | 762 | 498 | 31 | 133 |   0 | 3.414714e+03 | 4.054000e+03 |  18.72%| unknown
  5.6s|     1 |     0 |  5868 |     - |   166M |   0 |  13k| 407 | 768 | 504 | 32 | 133 |   0 | 3.414779e+03 | 4.054000e+03 |  18.72%| unknown
  5.7s|     1 |     0 |  5919 |     - |   166M |   0 |  13k| 407 | 756 | 511 | 33 | 133 |   0 | 3.414876e+03 | 4.054000e+03 |  18.72%| unknown
  5.8s|     1 |     0 |  6000 |     - |   166M |   0 |  13k| 407 | 762 | 517 | 34 | 133 |   0 | 3.415016e+03 | 4.054000e+03 |  18.71%| unknown
  5.9s|     1 |     0 |  6034 |     - |   166M |   0 |  13k| 406 | 765 | 520 | 35 | 133 |   0 | 3.415061e+03 | 4.054000e+03 |  18.71%| unknown
  6.1s|     1 |     0 |  6054 |     - |   166M |   0 |  13k| 406 | 766 | 521 | 36 | 133 |   0 | 3.415070e+03 | 4.054000e+03 |  18.71%| unknown
 time | node  | left  |LP iter|LP it/n|mem/heur|mdpt |vars |cons |rows |cuts |sepa|confs|strbr|  dualbound   | primalbound  |  gap   | compl. 
L12.5s|     1 |     0 | 16049 |     - |    rens|   0 |  13k| 407 | 766 | 521 | 36 | 141 |   0 | 3.415070e+03 | 3.455000e+03 |   1.17%| unknown
L12.6s|     1 |     0 | 16049 |     - |    alns|   0 |  13k| 407 | 766 | 521 | 36 | 141 |   0 | 3.415070e+03 | 3.446000e+03 |   0.91%| unknown
 12.7s|     1 |     0 | 16049 |     - |   171M |   0 |  13k| 407 | 766 | 521 | 36 | 141 |   0 | 3.415070e+03 | 3.446000e+03 |   0.91%| unknown
 12.7s|     1 |     0 | 16049 |     - |   172M |   0 |  13k| 407 | 766 | 521 | 36 | 141 |   0 | 3.415070e+03 | 3.446000e+03 |   0.91%| unknown
 12.8s|     1 |     0 | 16087 |     - |   172M |   0 |  13k| 379 | 770 | 525 | 37 | 141 |   0 | 3.415091e+03 | 3.446000e+03 |   0.91%| unknown
 12.9s|     1 |     0 | 16087 |     - |   172M |   0 |  13k| 379 | 770 | 525 | 37 | 141 |   0 | 3.415091e+03 | 3.446000e+03 |   0.91%| unknown
 12.9s|     1 |     0 | 16137 |     - |   172M |   0 |  13k| 379 | 775 | 530 | 38 | 141 |   0 | 3.415116e+03 | 3.446000e+03 |   0.90%| unknown
 12.9s|     1 |     0 | 16137 |     - |   172M |   0 |  13k| 379 | 775 | 530 | 38 | 141 |   0 | 3.415116e+03 | 3.446000e+03 |   0.90%| unknown
(run 1, node 1) restarting after 6339 global fixings of integer variables

(restart) converted 217 cuts from the global cut pool into linear constraints

presolving:
(round 1, fast)       6339 del vars, 101 del conss, 0 add conss, 0 chg bounds, 1 chg sides, 110 chg coeffs, 0 upgd conss, 0 impls, 7164 clqs
   (13.0s) running MILP presolver
   (13.0s) MILP presolver found nothing
(round 2, medium)     6339 del vars, 104 del conss, 19 add conss, 0 chg bounds, 1 chg sides, 110 chg coeffs, 0 upgd conss, 0 impls, 7164 clqs
(round 3, exhaustive) 6339 del vars, 104 del conss, 19 add conss, 0 chg bounds, 1 chg sides, 110 chg coeffs, 217 upgd conss, 0 impls, 7164 clqs
(round 4, fast)       6339 del vars, 104 del conss, 19 add conss, 0 chg bounds, 1 chg sides, 146 chg coeffs, 217 upgd conss, 0 impls, 7164 clqs
(round 5, medium)     6339 del vars, 200 del conss, 140 add conss, 0 chg bounds, 1 chg sides, 146 chg coeffs, 217 upgd conss, 0 impls, 7164 clqs
(round 6, exhaustive) 6339 del vars, 200 del conss, 140 add conss, 0 chg bounds, 1 chg sides, 213 chg coeffs, 217 upgd conss, 0 impls, 7164 clqs
presolving (7 rounds: 7 fast, 5 medium, 3 exhaustive):
 6339 deleted vars, 200 deleted constraints, 140 added constraints, 0 tightened bounds, 0 added holes, 1 changed sides, 213 changed coefficients
 0 implications, 7164 cliques
presolved problem has 7357 variables (7357 bin, 0 int, 0 impl, 0 cont) and 526 constraints
    150 constraints of type <knapsack>
    375 constraints of type <setppc>
      1 constraints of type <linear>
transformed objective value is always integral (scale: 1)
Presolving Time: 0.46
transformed 2/14 original solutions to the transformed problem space

 time | node  | left  |LP iter|LP it/n|mem/heur|mdpt |vars |cons |rows |cuts |sepa|confs|strbr|  dualbound   | primalbound  |  gap   | compl. 
 13.8s|     1 |     0 | 20026 |     - |   179M |   0 |7357 | 526 | 525 |   0 |  0 | 141 |   0 | 3.415116e+03 | 3.446000e+03 |   0.90%| unknown
 13.9s|     1 |     0 | 20026 |     - |   179M |   0 |7357 | 526 | 523 |   0 |  0 | 141 |   0 | 3.415116e+03 | 3.446000e+03 |   0.90%| unknown
 14.1s|     1 |     0 | 20498 |     - |   180M |   0 |7357 | 524 | 550 |  27 |  1 | 141 |   0 | 3.415116e+03 | 3.446000e+03 |   0.90%| unknown
 14.1s|     1 |     0 | 20498 |     - |   180M |   0 |7357 | 524 | 550 |  27 |  1 | 141 |   0 | 3.415116e+03 | 3.446000e+03 |   0.90%| unknown
 14.3s|     1 |     0 | 20952 |     - |   181M |   0 |7357 | 524 | 572 |  49 |  2 | 141 |   0 | 3.415116e+03 | 3.446000e+03 |   0.90%| unknown
 14.3s|     1 |     0 | 20952 |     - |   181M |   0 |7357 | 524 | 572 |  49 |  2 | 141 |   0 | 3.415116e+03 | 3.446000e+03 |   0.90%| unknown
 14.4s|     1 |     0 | 21109 |     - |   181M |   0 |7357 | 524 | 587 |  64 |  3 | 141 |   0 | 3.415116e+03 | 3.446000e+03 |   0.90%| unknown
 14.4s|     1 |     0 | 21109 |     - |   181M |   0 |7357 | 524 | 587 |  64 |  3 | 141 |   0 | 3.415116e+03 | 3.446000e+03 |   0.90%| unknown
 14.5s|     1 |     0 | 21265 |     - |   181M |   0 |7357 | 524 | 606 |  83 |  4 | 141 |   0 | 3.415116e+03 | 3.446000e+03 |   0.90%| unknown
 14.6s|     1 |     0 | 21265 |     - |   181M |   0 |7357 | 524 | 606 |  83 |  4 | 141 |   0 | 3.415116e+03 | 3.446000e+03 |   0.90%| unknown
 14.7s|     1 |     0 | 21345 |     - |   181M |   0 |7357 | 524 | 619 |  96 |  5 | 141 |   0 | 3.415194e+03 | 3.446000e+03 |   0.90%| unknown
 14.7s|     1 |     0 | 21345 |     - |   181M |   0 |7357 | 524 | 619 |  96 |  5 | 141 |   0 | 3.415194e+03 | 3.446000e+03 |   0.90%| unknown
 14.8s|     1 |     0 | 21426 |     - |   181M |   0 |7357 | 524 | 628 | 105 |  6 | 141 |   0 | 3.415305e+03 | 3.446000e+03 |   0.90%| unknown
 14.8s|     1 |     0 | 21426 |     - |   181M |   0 |7357 | 524 | 628 | 105 |  6 | 141 |   0 | 3.415305e+03 | 3.446000e+03 |   0.90%| unknown
 14.9s|     1 |     0 | 21485 |     - |   181M |   0 |7357 | 524 | 634 | 111 |  7 | 141 |   0 | 3.415423e+03 | 3.446000e+03 |   0.90%| unknown
 time | node  | left  |LP iter|LP it/n|mem/heur|mdpt |vars |cons |rows |cuts |sepa|confs|strbr|  dualbound   | primalbound  |  gap   | compl. 
 14.9s|     1 |     0 | 21485 |     - |   181M |   0 |7357 | 524 | 634 | 111 |  7 | 141 |   0 | 3.415423e+03 | 3.446000e+03 |   0.90%| unknown
 15.0s|     1 |     0 | 21551 |     - |   181M |   0 |7357 | 524 | 640 | 117 |  8 | 141 |   0 | 3.415541e+03 | 3.446000e+03 |   0.89%| unknown
 15.0s|     1 |     0 | 21551 |     - |   181M |   0 |7357 | 524 | 640 | 117 |  8 | 141 |   0 | 3.415541e+03 | 3.446000e+03 |   0.89%| unknown
 15.1s|     1 |     0 | 21636 |     - |   181M |   0 |7357 | 524 | 644 | 121 |  9 | 141 |   0 | 3.415608e+03 | 3.446000e+03 |   0.89%| unknown
 15.1s|     1 |     0 | 21636 |     - |   181M |   0 |7357 | 524 | 644 | 121 |  9 | 141 |   0 | 3.415608e+03 | 3.446000e+03 |   0.89%| unknown
 15.2s|     1 |     0 | 21676 |     - |   181M |   0 |7357 | 524 | 648 | 125 | 10 | 141 |   0 | 3.415639e+03 | 3.446000e+03 |   0.89%| unknown
 15.3s|     1 |     0 | 21676 |     - |   181M |   0 |7357 | 524 | 648 | 125 | 10 | 141 |   0 | 3.415639e+03 | 3.446000e+03 |   0.89%| unknown
 15.3s|     1 |     0 | 21710 |     - |   181M |   0 |7357 | 524 | 651 | 128 | 11 | 141 |   0 | 3.415657e+03 | 3.446000e+03 |   0.89%| unknown
 15.3s|     1 |     0 | 21710 |     - |   181M |   0 |7357 | 524 | 651 | 128 | 11 | 141 |   0 | 3.415657e+03 | 3.446000e+03 |   0.89%| unknown
 15.4s|     1 |     0 | 21761 |     - |   181M |   0 |7357 | 524 | 658 | 135 | 12 | 141 |   0 | 3.415687e+03 | 3.446000e+03 |   0.89%| unknown
 15.4s|     1 |     0 | 21761 |     - |   181M |   0 |7357 | 524 | 658 | 135 | 12 | 141 |   0 | 3.415687e+03 | 3.446000e+03 |   0.89%| unknown
 15.5s|     1 |     0 | 21801 |     - |   182M |   0 |7357 | 524 | 599 | 140 | 13 | 141 |   0 | 3.415735e+03 | 3.446000e+03 |   0.89%| unknown
 15.5s|     1 |     0 | 21801 |     - |   182M |   0 |7357 | 524 | 599 | 140 | 13 | 141 |   0 | 3.415735e+03 | 3.446000e+03 |   0.89%| unknown
(run 2, node 1) restarting after 810 global fixings of integer variables

(restart) converted 101 cuts from the global cut pool into linear constraints

presolving:
(round 1, fast)       810 del vars, 0 del conss, 0 add conss, 0 chg bounds, 0 chg sides, 7 chg coeffs, 0 upgd conss, 0 impls, 6192 clqs
(round 2, medium)     810 del vars, 2 del conss, 6 add conss, 0 chg bounds, 0 chg sides, 7 chg coeffs, 0 upgd conss, 0 impls, 6192 clqs
(round 3, exhaustive) 810 del vars, 2 del conss, 6 add conss, 0 chg bounds, 0 chg sides, 7 chg coeffs, 101 upgd conss, 0 impls, 6192 clqs
(round 4, medium)     810 del vars, 25 del conss, 30 add conss, 0 chg bounds, 0 chg sides, 21 chg coeffs, 101 upgd conss, 0 impls, 6192 clqs
(round 5, exhaustive) 810 del vars, 25 del conss, 30 add conss, 0 chg bounds, 0 chg sides, 57 chg coeffs, 101 upgd conss, 0 impls, 6192 clqs
presolving (6 rounds: 6 fast, 5 medium, 3 exhaustive):
 810 deleted vars, 25 deleted constraints, 30 added constraints, 0 tightened bounds, 0 added holes, 0 changed sides, 57 changed coefficients
 0 implications, 6192 cliques
presolved problem has 6547 variables (6547 bin, 0 int, 0 impl, 0 cont) and 624 constraints
    215 constraints of type <knapsack>
    394 constraints of type <setppc>
      1 constraints of type <linear>
     14 constraints of type <logicor>
transformed objective value is always integral (scale: 1)
Presolving Time: 0.61
transformed 3/15 original solutions to the transformed problem space

 time | node  | left  |LP iter|LP it/n|mem/heur|mdpt |vars |cons |rows |cuts |sepa|confs|strbr|  dualbound   | primalbound  |  gap   | compl. 
 17.7s|     1 |     0 | 29841 |     - |   185M |   0 |6547 | 624 | 609 |   0 |  0 | 155 |   0 | 3.415735e+03 | 3.446000e+03 |   0.89%| unknown
 17.7s|     1 |     0 | 29841 |     - |   185M |   0 |6547 | 624 | 609 |   0 |  0 | 155 |   0 | 3.415735e+03 | 3.446000e+03 |   0.89%| unknown
 17.8s|     1 |     0 | 29846 |     - |   185M |   0 |6547 | 624 | 611 |   2 |  1 | 155 |   0 | 3.415742e+03 | 3.446000e+03 |   0.89%| unknown
 17.9s|     1 |     0 | 29846 |     - |   185M |   0 |6547 | 624 | 611 |   2 |  1 | 155 |   0 | 3.415742e+03 | 3.446000e+03 |   0.89%| unknown
 17.9s|     1 |     0 | 29848 |     - |   185M |   0 |6547 | 624 | 612 |   3 |  2 | 155 |   0 | 3.415742e+03 | 3.446000e+03 |   0.89%| unknown
 18.0s|     1 |     0 | 29915 |     - |   186M |   0 |6547 | 624 | 615 |   6 |  3 | 155 |   0 | 3.415844e+03 | 3.446000e+03 |   0.88%| unknown
 18.0s|     1 |     0 | 29915 |     - |   186M |   0 |6547 | 624 | 615 |   6 |  3 | 155 |   0 | 3.415844e+03 | 3.446000e+03 |   0.88%| unknown
 18.1s|     1 |     0 | 29958 |     - |   186M |   0 |6547 | 624 | 620 |  11 |  4 | 155 |   0 | 3.415883e+03 | 3.446000e+03 |   0.88%| unknown
 18.1s|     1 |     0 | 29958 |     - |   186M |   0 |6547 | 624 | 620 |  11 |  4 | 155 |   0 | 3.415883e+03 | 3.446000e+03 |   0.88%| unknown
 18.2s|     1 |     0 | 30018 |     - |   186M |   0 |6547 | 624 | 626 |  17 |  5 | 155 |   0 | 3.415908e+03 | 3.446000e+03 |   0.88%| unknown
 18.2s|     1 |     0 | 30018 |     - |   186M |   0 |6547 | 624 | 626 |  17 |  5 | 155 |   0 | 3.415908e+03 | 3.446000e+03 |   0.88%| unknown
 18.3s|     1 |     0 | 30037 |     - |   186M |   0 |6547 | 624 | 630 |  21 |  6 | 155 |   0 | 3.415911e+03 | 3.446000e+03 |   0.88%| unknown
 18.4s|     1 |     0 | 30080 |     - |   186M |   0 |6547 | 624 | 632 |  23 |  7 | 155 |   0 | 3.415929e+03 | 3.446000e+03 |   0.88%| unknown
 18.4s|     1 |     0 | 30080 |     - |   186M |   0 |6547 | 624 | 632 |  23 |  7 | 155 |   0 | 3.415929e+03 | 3.446000e+03 |   0.88%| unknown
 18.5s|     1 |     0 | 30139 |     - |   187M |   0 |6547 | 624 | 638 |  29 |  8 | 155 |   0 | 3.415959e+03 | 3.446000e+03 |   0.88%| unknown
 time | node  | left  |LP iter|LP it/n|mem/heur|mdpt |vars |cons |rows |cuts |sepa|confs|strbr|  dualbound   | primalbound  |  gap   | compl. 
 18.5s|     1 |     0 | 30139 |     - |   187M |   0 |6547 | 624 | 638 |  29 |  8 | 155 |   0 | 3.415959e+03 | 3.446000e+03 |   0.88%| unknown
 18.6s|     1 |     0 | 30198 |     - |   187M |   0 |6547 | 624 | 645 |  36 |  9 | 155 |   0 | 3.415991e+03 | 3.446000e+03 |   0.88%| unknown
 18.6s|     1 |     0 | 30198 |     - |   187M |   0 |6547 | 624 | 645 |  36 |  9 | 155 |   0 | 3.415991e+03 | 3.446000e+03 |   0.88%| unknown
 18.7s|     1 |     0 | 30239 |     - |   187M |   0 |6547 | 624 | 648 |  39 | 10 | 155 |   0 | 3.416020e+03 | 3.446000e+03 |   0.88%| unknown
 18.7s|     1 |     0 | 30239 |     - |   187M |   0 |6547 | 624 | 648 |  39 | 10 | 155 |   0 | 3.416020e+03 | 3.446000e+03 |   0.88%| unknown
 18.8s|     1 |     0 | 30313 |     - |   187M |   0 |6547 | 624 | 652 |  43 | 11 | 155 |   0 | 3.416065e+03 | 3.446000e+03 |   0.88%| unknown
 18.8s|     1 |     0 | 30313 |     - |   187M |   0 |6547 | 624 | 652 |  43 | 11 | 155 |   0 | 3.416065e+03 | 3.446000e+03 |   0.88%| unknown
 22.1s|     1 |     2 | 31909 |     - |   187M |   0 |6547 | 626 | 652 |  43 | 11 | 165 |  21 | 3.416604e+03 | 3.446000e+03 |   0.86%| unknown
(run 3, node 1) restarting after 477 global fixings of integer variables

(restart) converted 36 cuts from the global cut pool into linear constraints

presolving:
(round 1, fast)       477 del vars, 0 del conss, 0 add conss, 0 chg bounds, 0 chg sides, 13 chg coeffs, 0 upgd conss, 0 impls, 5723 clqs
   (22.1s) running MILP presolver
   (22.1s) MILP presolver found nothing
(round 2, medium)     477 del vars, 2 del conss, 12 add conss, 0 chg bounds, 0 chg sides, 13 chg coeffs, 0 upgd conss, 0 impls, 5723 clqs
(round 3, exhaustive) 477 del vars, 2 del conss, 12 add conss, 0 chg bounds, 0 chg sides, 13 chg coeffs, 36 upgd conss, 0 impls, 5723 clqs
(round 4, medium)     477 del vars, 2 del conss, 12 add conss, 0 chg bounds, 1 chg sides, 16 chg coeffs, 36 upgd conss, 0 impls, 5723 clqs
(round 5, exhaustive) 477 del vars, 3 del conss, 12 add conss, 0 chg bounds, 1 chg sides, 20 chg coeffs, 36 upgd conss, 0 impls, 5723 clqs
presolving (6 rounds: 6 fast, 5 medium, 3 exhaustive):
 477 deleted vars, 3 deleted constraints, 12 added constraints, 0 tightened bounds, 0 added holes, 1 changed sides, 20 changed coefficients
 0 implications, 5723 cliques
presolved problem has 6070 variables (6070 bin, 0 int, 0 impl, 0 cont) and 671 constraints
    246 constraints of type <knapsack>
    401 constraints of type <setppc>
      1 constraints of type <linear>
     23 constraints of type <logicor>
transformed objective value is always integral (scale: 1)
Presolving Time: 0.79
transformed 4/16 original solutions to the transformed problem space

 time | node  | left  |LP iter|LP it/n|mem/heur|mdpt |vars |cons |rows |cuts |sepa|confs|strbr|  dualbound   | primalbound  |  gap   | compl. 
 23.3s|     1 |     0 | 37762 |     - |   191M |   0 |6070 | 671 | 647 |   0 |  0 | 165 |  21 | 3.416604e+03 | 3.446000e+03 |   0.86%| unknown
 23.3s|     1 |     0 | 37762 |     - |   191M |   0 |6070 | 671 | 647 |   0 |  0 | 165 |  21 | 3.416604e+03 | 3.446000e+03 |   0.86%| unknown
 23.4s|     1 |     0 | 37799 |     - |   191M |   0 |6070 | 671 | 653 |   6 |  1 | 165 |  21 | 3.416604e+03 | 3.446000e+03 |   0.86%| unknown
 23.4s|     1 |     0 | 37799 |     - |   191M |   0 |6070 | 671 | 653 |   6 |  1 | 165 |  21 | 3.416604e+03 | 3.446000e+03 |   0.86%| unknown
 23.5s|     1 |     0 | 37817 |     - |   191M |   0 |6070 | 671 | 655 |   8 |  2 | 165 |  21 | 3.416604e+03 | 3.446000e+03 |   0.86%| unknown
 23.6s|     1 |     0 | 37856 |     - |   191M |   0 |6070 | 671 | 659 |  12 |  3 | 165 |  21 | 3.416604e+03 | 3.446000e+03 |   0.86%| unknown
 23.7s|     1 |     0 | 37942 |     - |   191M |   0 |6070 | 671 | 661 |  14 |  4 | 165 |  21 | 3.416604e+03 | 3.446000e+03 |   0.86%| unknown
 23.7s|     1 |     0 | 37942 |     - |   191M |   0 |6070 | 671 | 661 |  14 |  4 | 165 |  21 | 3.416604e+03 | 3.446000e+03 |   0.86%| unknown
 23.8s|     1 |     0 | 37981 |     - |   191M |   0 |6070 | 671 | 663 |  16 |  5 | 165 |  21 | 3.416604e+03 | 3.446000e+03 |   0.86%| unknown
 23.8s|     1 |     0 | 37981 |     - |   191M |   0 |6070 | 671 | 663 |  16 |  5 | 165 |  21 | 3.416604e+03 | 3.446000e+03 |   0.86%| unknown
 23.9s|     1 |     0 | 38025 |     - |   191M |   0 |6070 | 671 | 664 |  17 |  6 | 165 |  21 | 3.416604e+03 | 3.446000e+03 |   0.86%| unknown
 23.9s|     1 |     0 | 38025 |     - |   191M |   0 |6070 | 671 | 664 |  17 |  6 | 165 |  21 | 3.416604e+03 | 3.446000e+03 |   0.86%| unknown
 24.0s|     1 |     0 | 38081 |     - |   192M |   0 |6070 | 671 | 668 |  21 |  7 | 165 |  21 | 3.416604e+03 | 3.446000e+03 |   0.86%| unknown
 24.0s|     1 |     0 | 38081 |     - |   192M |   0 |6070 | 671 | 668 |  21 |  7 | 165 |  21 | 3.416604e+03 | 3.446000e+03 |   0.86%| unknown
 24.1s|     1 |     0 | 38166 |     - |   192M |   0 |6070 | 671 | 671 |  24 |  8 | 165 |  21 | 3.416604e+03 | 3.446000e+03 |   0.86%| unknown
 time | node  | left  |LP iter|LP it/n|mem/heur|mdpt |vars |cons |rows |cuts |sepa|confs|strbr|  dualbound   | primalbound  |  gap   | compl. 
 24.2s|     1 |     0 | 38166 |     - |   192M |   0 |6070 | 671 | 671 |  24 |  8 | 165 |  21 | 3.416604e+03 | 3.446000e+03 |   0.86%| unknown
 24.2s|     1 |     0 | 38217 |     - |   192M |   0 |6070 | 671 | 673 |  26 |  9 | 165 |  21 | 3.416604e+03 | 3.446000e+03 |   0.86%| unknown
 24.2s|     1 |     0 | 38217 |     - |   192M |   0 |6070 | 671 | 673 |  26 |  9 | 165 |  21 | 3.416604e+03 | 3.446000e+03 |   0.86%| unknown
 24.3s|     1 |     0 | 38251 |     - |   192M |   0 |6070 | 671 | 677 |  30 | 10 | 165 |  21 | 3.416604e+03 | 3.446000e+03 |   0.86%| unknown
 24.3s|     1 |     0 | 38251 |     - |   192M |   0 |6070 | 671 | 677 |  30 | 10 | 165 |  21 | 3.416604e+03 | 3.446000e+03 |   0.86%| unknown
 24.4s|     1 |     0 | 38272 |     - |   192M |   0 |6070 | 671 | 562 |  33 | 11 | 165 |  21 | 3.416604e+03 | 3.446000e+03 |   0.86%| unknown
 27.3s|     1 |     2 | 42418 |     - |   192M |   0 |6070 | 661 | 562 |  33 | 11 | 167 |  41 | 3.416726e+03 | 3.446000e+03 |   0.86%| unknown
 64.3s|   100 |    57 | 63894 | 393.4 |   201M |  22 |6070 | 828 | 528 | 641 |  2 | 334 |1119 | 3.416726e+03 | 3.446000e+03 |   0.86%|   0.30%
 68.8s|   200 |   117 | 77251 | 264.8 |   203M |  28 |6070 | 838 | 530 | 815 |  1 | 344 |1159 | 3.417332e+03 | 3.446000e+03 |   0.84%|   0.98%
L69.1s|   201 |    82 | 77392 | 264.1 |crossove|  28 |6070 | 846 | 530 | 815 |  2 | 352 |1160 | 3.417332e+03 | 3.439000e+03 |   0.63%|   1.12%
 75.5s|   300 |   137 | 92301 | 226.9 |   210M |  28 |6070 | 898 | 540 |1107 |  2 | 404 |1239 | 3.417451e+03 | 3.439000e+03 |   0.63%|   1.76%
 81.9s|   400 |   201 |109720 | 213.8 |   212M |  28 |6070 | 926 | 526 |1221 |  1 | 433 |1332 | 3.417626e+03 | 3.439000e+03 |   0.63%|   2.45%
L82.0s|   401 |    89 |109750 | 213.3 |    rins|  28 |6070 | 926 | 526 |1221 |  1 | 433 |1332 | 3.417626e+03 | 3.427000e+03 |   0.27%|   3.56%
 84.6s|   500 |   172 |116448 | 184.6 |   215M |  40 |6070 | 973 | 555 |1307 |  6 | 488 |1362 | 3.417700e+03 | 3.427000e+03 |   0.27%|   4.30%
*86.7s|   532 |   161 |122628 | 185.1 |strongbr|  44 |6070 | 981 | 562 |1427 |  2 | 497 |1384 | 3.417897e+03 | 3.426000e+03 |   0.24%|   7.16%
 time | node  | left  |LP iter|LP it/n|mem/heur|mdpt |vars |cons |rows |cuts |sepa|confs|strbr|  dualbound   | primalbound  |  gap   | compl. 
 89.1s|   600 |   193 |126590 | 170.8 |   220M |  44 |6070 |1032 | 548 |1581 |  2 | 548 |1413 | 3.418046e+03 | 3.426000e+03 |   0.23%|   8.40%
*89.8s|   659 |   111 |128197 | 158.0 |    LP  |  55 |6070 |1066 | 553 |1634 |  1 | 583 |1417 | 3.418046e+03 | 3.425000e+03 |   0.20%|  14.80%
 90.7s|   700 |   116 |130574 | 152.1 |   224M |  55 |6070 |1111 | 537 |1680 |  3 | 634 |1425 | 3.418055e+03 | 3.425000e+03 |   0.20%|  18.98%
 93.6s|   800 |   140 |138124 | 142.6 |   226M |  55 |6070 |1185 | 538 |1840 |  2 | 716 |1453 | 3.418107e+03 | 3.425000e+03 |   0.20%|  19.88%
*94.2s|   856 |    72 |139686 | 135.1 |    LP  |  55 |6070 |1198 | 540 |1860 |  2 | 732 |1457 | 3.418154e+03 | 3.424000e+03 |   0.17%|  27.98%
 95.0s|   900 |    69 |141443 | 130.5 |   228M |  55 |6070 |1198 | 537 |1893 |  1 | 748 |1466 | 3.418176e+03 | 3.424000e+03 |   0.17%|  32.39%
 97.5s|  1000 |    75 |147759 | 123.7 |   228M |  55 |6070 |1268 | 537 |2048 |  0 | 819 |1510 | 3.418176e+03 | 3.424000e+03 |   0.17%|  36.33%
  100s|  1100 |    83 |153593 | 117.8 |   228M |  55 |6070 |1300 | 556 |2178 |  0 | 858 |1541 | 3.418368e+03 | 3.424000e+03 |   0.16%|  38.05%
  104s|  1200 |    81 |162283 | 115.2 |   229M |  55 |6070 |1362 | 540 |2328 |  0 | 929 |1603 | 3.419058e+03 | 3.424000e+03 |   0.14%|  53.90%
  105s|  1300 |    73 |166142 | 109.3 |   230M |  55 |6070 |1414 | 509 |2383 |  3 | 989 |1625 | 3.419184e+03 | 3.424000e+03 |   0.14%|  55.53%
  108s|  1400 |    61 |173136 | 106.5 |   230M |  55 |6070 |1487 | 536 |2448 |  1 |1080 |1696 | 3.419184e+03 | 3.424000e+03 |   0.14%|  58.96%
  110s|  1500 |    65 |181378 | 104.9 |   230M |  55 |6070 |1486 | 538 |2595 |  0 |1100 |1732 | 3.420066e+03 | 3.424000e+03 |   0.12%|  71.23%
  113s|  1600 |    45 |189577 | 103.5 |   230M |  55 |6070 |1485 | 543 |2691 |  0 |1134 |1760 | 3.420211e+03 | 3.424000e+03 |   0.11%|  81.83%

SCIP Status        : problem is solved [optimal solution found]
Solving Time (sec) : 113.72
Solving Nodes      : 1663 (total of 1666 nodes in 4 runs)
Primal Bound       : +3.42400000000000e+03 (112 solutions)
Dual Bound         : +3.42400000000000e+03
Gap                : 0.00 %
Solve Status: optimal
Solve Time: 113.72 seconds
